(error "Parse Error: tmp-hack-1661013758:14.18: Symbol lfoFreq is not declared.

  (assert (= lfoFreq 0))
             ^
")

(set-logic LIA)
(declare-const fmFreq Int)
(synth-fun function ((lfoFreq Int)) Int
	((I Int))(
		(I Int (
				(- lfoFreq 1)
				(- I 1)
				(+ lfoFreq 1)
				(+ I 1)
			)
		)
	)
)
(assert (= lfoFreq 0))
(constraint (<= fmFreq 500))
(check-synth)

CVC4 Error:
(error "Parse Error: tmp-hack-1063473665:14.18: Symbol lfoFreq is not declared.

  (assert (= lfoFreq (- 1)))
             ^
")

(set-logic LIA)
(declare-const fmFreq Int)
(synth-fun function ((lfoFreq Int)) Int
	((I Int))(
		(I Int (
				(- lfoFreq 1)
				(- I 1)
				(+ lfoFreq 1)
				(+ I 1)
			)
		)
	)
)
(assert (= lfoFreq (- 1)))
(constraint (<= fmFreq 500))
(check-synth)

CVC4 Error:
(error "Parse Error: tmp-hack-1329668865:14.18: Symbol lfoFreq is not declared.

  (assert (= lfoFreq (- 2)))
             ^
")

(set-logic LIA)
(declare-const fmFreq Int)
(synth-fun function ((lfoFreq Int)) Int
	((I Int))(
		(I Int (
				(- lfoFreq 1)
				(- I 1)
				(+ lfoFreq 1)
				(+ I 1)
			)
		)
	)
)
(assert (= lfoFreq (- 2)))
(constraint (<= fmFreq 500))
(check-synth)

CVC4 Error:
(error "Parse Error: tmp-hack-993466264:14.18: Symbol lfoFreq is not declared.

  (assert (= lfoFreq 0))
             ^
")

(set-logic LIA)
(declare-const fmFreq Int)
(synth-fun function ((lfoFreq Int)) Int
	((I Int))(
		(I Int (
				(- lfoFreq 1)
				(- I 1)
				(+ lfoFreq 1)
				(+ I 1)
			)
		)
	)
)
(assert (= lfoFreq 0))
(constraint (> fmFreq 500))
(check-synth)

CVC4 Error:
(error "Parse Error: tmp-hack712404100:14.18: Symbol lfoFreq is not declared.

  (assert (= lfoFreq (- 1)))
             ^
")

(set-logic LIA)
(declare-const fmFreq Int)
(synth-fun function ((lfoFreq Int)) Int
	((I Int))(
		(I Int (
				(- lfoFreq 1)
				(- I 1)
				(+ lfoFreq 1)
				(+ I 1)
			)
		)
	)
)
(assert (= lfoFreq (- 1)))
(constraint (> fmFreq 500))
(check-synth)

CVC4 Error:
(error "Parse Error: tmp-hack-2141311317:14.18: Symbol lfoFreq is not declared.

  (assert (= lfoFreq (- 2)))
             ^
")

(set-logic LIA)
(declare-const fmFreq Int)
(synth-fun function ((lfoFreq Int)) Int
	((I Int))(
		(I Int (
				(- lfoFreq 1)
				(- I 1)
				(+ lfoFreq 1)
				(+ I 1)
			)
		)
	)
)
(assert (= lfoFreq (- 2)))
(constraint (> fmFreq 500))
(check-synth)

CVC4 Error:
(error "Parse Error: tmp-hack1986813010:14.18: Symbol lfoFreq is not declared.

  (assert (= lfoFreq 0))
             ^
")

(set-logic LIA)
(declare-const fmFreq Int)
(synth-fun function ((lfoFreq Int)) Int
	((I Int))(
		(I Int (
				(- lfoFreq 1)
				(- I 1)
				(+ lfoFreq 1)
				(+ I 1)
			)
		)
	)
)
(assert (= lfoFreq 0))
(constraint (not (<= fmFreq 500)))
(check-synth)

CVC4 Error:
(error "Parse Error: tmp-hack-1606015806:14.18: Symbol lfoFreq is not declared.

  (assert (= lfoFreq (- 1)))
             ^
")

(set-logic LIA)
(declare-const fmFreq Int)
(synth-fun function ((lfoFreq Int)) Int
	((I Int))(
		(I Int (
				(- lfoFreq 1)
				(- I 1)
				(+ lfoFreq 1)
				(+ I 1)
			)
		)
	)
)
(assert (= lfoFreq (- 1)))
(constraint (not (<= fmFreq 500)))
(check-synth)

CVC4 Error:
(error "Parse Error: tmp-hack-1070538137:14.18: Symbol lfoFreq is not declared.

  (assert (= lfoFreq (- 2)))
             ^
")

(set-logic LIA)
(declare-const fmFreq Int)
(synth-fun function ((lfoFreq Int)) Int
	((I Int))(
		(I Int (
				(- lfoFreq 1)
				(- I 1)
				(+ lfoFreq 1)
				(+ I 1)
			)
		)
	)
)
(assert (= lfoFreq (- 2)))
(constraint (not (<= fmFreq 500)))
(check-synth)

CVC4 Error:
(error "Parse Error: tmp-hack-1221415100:14.18: Symbol lfoFreq is not declared.

  (assert (= lfoFreq 0))
             ^
")

(set-logic LIA)
(declare-const fmFreq Int)
(synth-fun function ((lfoFreq Int)) Int
	((I Int))(
		(I Int (
				(- lfoFreq 1)
				(- I 1)
				(+ lfoFreq 1)
				(+ I 1)
			)
		)
	)
)
(assert (= lfoFreq 0))
(constraint (not (> fmFreq 500)))
(check-synth)

CVC4 Error:
(error "Parse Error: tmp-hack-1668109692:14.18: Symbol lfoFreq is not declared.

  (assert (= lfoFreq (- 1)))
             ^
")

(set-logic LIA)
(declare-const fmFreq Int)
(synth-fun function ((lfoFreq Int)) Int
	((I Int))(
		(I Int (
				(- lfoFreq 1)
				(- I 1)
				(+ lfoFreq 1)
				(+ I 1)
			)
		)
	)
)
(assert (= lfoFreq (- 1)))
(constraint (not (> fmFreq 500)))
(check-synth)

CVC4 Error:
(error "Parse Error: tmp-hack1214692417:14.18: Symbol lfoFreq is not declared.

  (assert (= lfoFreq (- 2)))
             ^
")

(set-logic LIA)
(declare-const fmFreq Int)
(synth-fun function ((lfoFreq Int)) Int
	((I Int))(
		(I Int (
				(- lfoFreq 1)
				(- I 1)
				(+ lfoFreq 1)
				(+ I 1)
			)
		)
	)
)
(assert (= lfoFreq (- 2)))
(constraint (not (> fmFreq 500)))
(check-synth)

